[VALIDATOR STDOUT]
Checking plan: /home/jfan5/Safety-gen/runs/benchmark/optic/blocksworld_20260201_170641/blocksworld/optic_results/bw_ops3_n09_seed9001.plan
Plan executed successfully - checking goal
Plan valid
Final value: 20 

Successful plans:
Value: 20
 /home/jfan5/Safety-gen/runs/benchmark/optic/blocksworld_20260201_170641/blocksworld/optic_results/bw_ops3_n09_seed9001.plan 20
